1337279
27, 87, 105, 57, 37, 26, 41, 38, 66, 77, 108, 33, 78, 106, 55, 68, 103, 56, 80, 13, 93, 96, 21, 42, 60, 40, 8, 28, 36, 12, 65, 88, 7, 18, 50, 76, 73, 19, 62, 99, 71, 47, 39, 14, 70, 69, 86, 75, 72, 31, 49, 9, 10, 64, 22, 91, 89, 11, 97, 104, 58, 54, 102, 100, 53, 17, 15, 23, 24, 109, 90, 83, 25, 16, 107, 94, 81, 2, 51, 84, 59, 46, 29, 52, 101, 98, 35, 5, 1, 82, 45, 34, 3, 63, 20, 44, 43, 85, 61, 32, 95, 6, 30, 92, 4, 79, 67, 74, 48
